<instance format="XCSP3" type="CSP">
  <variables>
    <var id="x0"> 0 3 10 12 </var>
    <var id="x1"> 0 3 5 10 13 </var>
    <var id="x2"> 3 5 10 12 13 </var>
    <var id="x3"> 1 3 10 </var>
    <var id="x4"> 0 1 3 10 12 </var>
    <var id="x5"> 1 5 10 12 </var>
    <var id="x6"> 1 3 5 10 </var>
    <var id="x7"> 1 3 12 13 </var>
    <var id="x8"> 3 7 12 13 </var>
    <var id="x9"> 3 8 11..13 </var>
    <var id="x10"> 1 3 11 </var>
    <var id="x11"> 1 3 8 </var>
    <var id="x12"> 1 3 7 12 </var>
    <var id="x13"> 1 7 12 </var>
    <var id="x14"> 1 3 5 9 12 </var>
    <var id="x15"> 3 4 12 </var>
    <var id="x16"> 1 3 5 </var>
    <var id="x17"> 1 3 4 10 </var>
    <var id="x18"> 1 3 10 12 </var>
    <var id="x19"> 1 4 9 10 </var>
    <var id="x20"> 1 3..5 10 </var>
    <var id="x21"> 1 3 9 </var>
    <var id="x22"> 0 3 8 10 </var>
    <var id="x23"> 3 8 10 </var>
    <var id="x24"> 0 1 3 </var>
    <var id="x25"> 0 1 3 </var>
    <var id="x26"> 0 1 3 8 </var>
    <var id="x27"> 1 3 6 8 10 </var>
    <var id="x28"> 0 3 13 </var>
    <var id="x29"> 0 1 3 4 13 </var>
    <var id="x30"> 0 1 3 13 14 </var>
    <var id="x31"> 1 3 4 12 </var>
    <var id="x32"> 0 1 3 14 </var>
    <var id="x33"> 1 3 4 </var>
    <var id="x34"> 1 3 4 14 </var>
    <var id="x35"> 3 5 10 11 </var>
    <var id="x36"> 1 3..5 </var>
    <var id="x37"> 1 3 5 11 14 </var>
    <var as="x37" id="x38"/>
    <var id="x39"> 1 3..5 11 </var>
    <var id="x40"> 1 3 11 14 </var>
    <var id="x41"> 1 3 10 </var>
    <var id="x42"> 0 3 10 </var>
    <var id="x43"> 0 1 3 11 </var>
    <var id="x44"> 1 3 6 7 11 </var>
    <var id="x45"> 0 1 3 11 </var>
    <var id="x46"> 0 1 3 7 10 </var>
    <var id="x47"> 1 7 10 </var>
    <var id="x48"> 1 10 </var>
    <var id="x49"> 1..3 9 12 </var>
    <var id="x50"> 2 3 9 </var>
    <var id="x51"> 3 4 12 </var>
    <var id="x52"> 1 3 4 8 </var>
    <var id="x53"> 1 3 4 12 </var>
    <var id="x54"> 1 9 12 </var>
    <var id="x55"> 1 2 4 9 </var>
    <var id="x56"> 0 3 10 </var>
    <var id="x57"> 0 3 4 </var>
    <var id="x58"> 0 3..5 </var>
    <var id="x59"> 3..5 </var>
    <var id="x60"> 5 10 14 </var>
    <var id="x61"> 2 4 10 14 </var>
    <var id="x62"> 2..5 10 14 </var>
    <var id="x63"> 0 7 10 12 </var>
    <var id="x64"> 0 7 12 13 </var>
    <var id="x65"> 5 10 12 13 </var>
    <var id="x66"> 0 1 5 13 </var>
    <var id="x67"> 0 1 5 13 </var>
    <var id="x68"> 0..2 7 10 12 </var>
    <var id="x69"> 1 2 10 13 </var>
    <var id="x70"> 1 2 5 10 </var>
    <var id="x71"> 2 3 12 </var>
    <var id="x72"> 0 3 12 </var>
    <var id="x73"> 0 2 3 11 14 </var>
    <var id="x74"> 3 11 12 </var>
    <var id="x75"> 0 2 3 8 11 14 </var>
    <var id="x76"> 0 2 3 12 </var>
    <var id="x77"> 2 14 </var>
    <var id="x78"> 2 3 5 </var>
    <var id="x79"> 3 5 8 11 </var>
    <var as="x37" id="x80"/>
    <var id="x81"> 1 3 5 11 </var>
    <var id="x82"> 1..3 8 </var>
    <var id="x83"> 1 5 14 </var>
    <var id="x84"> 1..3 5 14 </var>
    <var id="x85"> 2 5 9 13 </var>
    <var id="x86"> 7 </var>
    <var id="x87"> 2 5 9 13 </var>
    <var id="x88"> 5 13 </var>
    <var id="x89"> 2 5 14 </var>
    <var id="x90"> 5 13 14 </var>
    <var id="x91"> 2 4 </var>
    <var id="x92"> 3 10 </var>
    <var id="x93"> 2 3 5 10 13 </var>
    <var id="x94"> 3 6 13 </var>
    <var id="x95"> 1 3 5 13 </var>
    <var id="x96"> 1..3 5 </var>
    <var id="x97"> 1..3 </var>
    <var id="x98"> 1 2 10 13 </var>
    <var id="x99"> 2 3 5 13 </var>
    <var id="x100"> 0 3 7 11 </var>
    <var id="x101"> 0 3 5 13 </var>
    <var id="x102"> 3 5 7 11 </var>
    <var id="x103"> 0 2 3 11 </var>
    <var id="x104"> 5 7 </var>
    <var id="x105"> 2 3 5 </var>
  </variables>
  <constraints>
    <group>
      <allDifferent> %... </allDifferent>
      <args> x0 x1 x2 x3 x4 x5 x6 </args>
      <args> x7 x8 x9 x10 x11 x12 x13 </args>
      <args> x14 x15 x16 x17 x18 x19 x20 </args>
      <args> x21 x22 x23 x24 x25 x26 x27 </args>
      <args> x28 x29 x30 x31 x32 x33 x34 </args>
      <args> x35 x36 x37 x38 x39 x40 x41 </args>
      <args> x42 x43 x44 x45 x46 x47 x48 </args>
      <args> x49 x50 x51 x52 x53 x54 x55 </args>
      <args> x56 x57 x58 x59 x60 x61 x62 </args>
      <args> x63 x64 x65 x66 x67 x68 x69 x70 </args>
      <args> x71 x72 x73 x74 x75 x76 x77 </args>
      <args> x78 x79 x80 x81 x82 x83 x84 </args>
      <args> x85 x86 x87 x88 x89 x90 x91 </args>
      <args> x92 x93 x94 x95 x96 x97 x98 </args>
      <args> x99 x100 x101 x102 x103 x104 x105 </args>
      <args> x7 x14 x21 x49 x71 x85 x99 </args>
      <args> x0 x22 x56 x63 x86 x92 x100 </args>
      <args> x1 x28 x42 x50 x78 x87 x93 </args>
      <args> x8 x15 x51 x57 x64 x72 x94 </args>
      <args> x2 x9 x23 x35 x65 x79 x88 </args>
      <args> x29 x36 x52 x58 x66 x95 x101 </args>
      <args> x10 x16 x24 x37 x73 x89 x96 </args>
      <args> x25 x30 x38 x43 x67 x80 x90 </args>
      <args> x31 x39 x44 x53 x59 x74 x81 x102 </args>
      <args> x26 x32 x40 x45 x75 x97 x103 </args>
      <args> x3 x11 x17 x27 x33 x82 x91 </args>
      <args> x4 x12 x18 x41 x46 x68 x76 </args>
      <args> x5 x13 x47 x54 x60 x83 x104 </args>
      <args> x19 x48 x55 x61 x69 x77 x98 </args>
      <args> x6 x20 x34 x62 x70 x84 x105 </args>
    </group>
  </constraints>
</instance>

